c E(0,3) E(3,0) E(3,2) E(2,3) E(3,1) E(1,3) E(0,2) E(2,0) E(0,1) E(1,0) E(2,1) E(1,2)
c 1 2 3 4 5 6 7 8 9 10 11 12
p cnf 12 28
9 -9 0
9 -10 0
7 -7 0
7 -8 0
1 -1 0
1 -2 0
10 -9 0
10 -10 0
12 -12 0
12 -11 0
6 -6 0
6 -5 0
8 -7 0
8 -8 0
11 -12 0
11 -11 0
4 -4 0
4 -3 0
2 -1 0
2 -2 0
5 -6 0
5 -5 0
3 -4 0
3 -3 0
9 7 1 0
10 12 6 0
8 11 4 0
2 5 3 0
